data;
param n := 20;
param capacity := 294;
param: V : weight valeur :=
  1 16 76
  2 35 17
  3 24 78
  4 31 81
  5 38 9
  6 39 2
  7 31 34
  8 36 30
  9 13 92
  10 31 70
  11 36 61
  12 26 82
  13 10 30
  14 41 20
  15 34 50
  16 48 2
  17 43 100
  18 5 21
  19 49 76
  20 3 39;
end;